modeles/3_54.lp
minimize
obj: 1 x_1_ + 1 x_2_ + 1 x_3_
subject to
c1_1: 1 t_1,1_ - 1 y_1,1_ <= 0
c2_1: 1 t_1,2_ - 1 y_1,1_ - 1 y_1,2_ <= 0
c3_1: 1 t_1,3_ - 1 y_1,2_ - 1 y_1,3_ <= 0
c4_1: 1 t_1,4_ - 1 y_1,3_ - 1 y_1,4_ <= 0
c5_1: 1 t_1,5_ - 1 y_1,4_ - 1 y_1,5_ <= 0
c6_1: 1 t_1,6_ - 1 y_1,5_ - 1 y_1,6_ <= 0
c7_1: 1 t_1,7_ - 1 y_1,6_ - 1 y_1,7_ <= 0
c8_1: 1 t_1,8_ - 1 y_1,7_ - 1 y_1,8_ <= 0
c9_1: 1 t_1,9_ - 1 y_1,8_ - 1 y_1,9_ <= 0
c10: 1 t_1,10_ - 1 y_1,9_ - 1 y_1,10_ <= 0
c11: 1 t_1,11_ - 1 y_1,10_ - 1 y_1,11_ <= 0
c12: 1 t_1,12_ - 1 y_1,11_ - 1 y_1,12_ <= 0
c13: 1 t_1,13_ - 1 y_1,12_ - 1 y_1,13_ <= 0
c14: 1 t_1,14_ - 1 y_1,13_ - 1 y_1,14_ <= 0
c15: 1 t_1,15_ - 1 y_1,14_ - 1 y_1,15_ <= 0
c16: 1 t_1,16_ - 1 y_1,15_ - 1 y_1,16_ <= 0
c17: 1 t_1,17_ - 1 y_1,16_ - 1 y_1,17_ <= 0
c18: 1 t_1,18_ - 1 y_1,17_ - 1 y_1,18_ <= 0
c19: 1 t_1,19_ - 1 y_1,18_ - 1 y_1,19_ <= 0
c20: 1 t_1,20_ - 1 y_1,19_ - 1 y_1,20_ <= 0
c21: 1 t_1,21_ - 1 y_1,20_ - 1 y_1,21_ <= 0
c22: 1 t_1,22_ - 1 y_1,21_ - 1 y_1,22_ <= 0
c23: 1 t_1,23_ - 1 y_1,22_ - 1 y_1,23_ <= 0
c24: 1 t_1,24_ - 1 y_1,23_ - 1 y_1,24_ <= 0
c25: 1 t_1,25_ - 1 y_1,24_ - 1 y_1,25_ <= 0
c26: 1 t_1,26_ - 1 y_1,25_ - 1 y_1,26_ <= 0
c27: 1 t_1,27_ - 1 y_1,26_ - 1 y_1,27_ <= 0
c28: 1 t_1,28_ - 1 y_1,27_ - 1 y_1,28_ <= 0
c29: 1 t_1,29_ - 1 y_1,28_ - 1 y_1,29_ <= 0
c30: 1 t_1,30_ - 1 y_1,29_ - 1 y_1,30_ <= 0
c31: 1 t_1,31_ - 1 y_1,30_ - 1 y_1,31_ <= 0
c32: 1 t_1,32_ - 1 y_1,31_ - 1 y_1,32_ <= 0
c33: 1 t_1,33_ - 1 y_1,32_ - 1 y_1,33_ <= 0
c34: 1 t_1,34_ - 1 y_1,33_ - 1 y_1,34_ <= 0
c35: 1 t_1,35_ - 1 y_1,34_ - 1 y_1,35_ <= 0
c36: 1 t_1,36_ - 1 y_1,35_ - 1 y_1,36_ <= 0
c37: 1 t_1,37_ - 1 y_1,36_ - 1 y_1,37_ <= 0
c38: 1 t_1,38_ - 1 y_1,37_ - 1 y_1,38_ <= 0
c39: 1 t_1,39_ - 1 y_1,38_ - 1 y_1,39_ <= 0
c40: 1 t_1,40_ - 1 y_1,39_ - 1 y_1,40_ <= 0
c41: 1 t_1,41_ - 1 y_1,40_ - 1 y_1,41_ <= 0
c42: 1 t_1,42_ - 1 y_1,41_ - 1 y_1,42_ <= 0
c43: 1 t_1,43_ - 1 y_1,42_ - 1 y_1,43_ <= 0
c44: 1 t_1,44_ - 1 y_1,43_ - 1 y_1,44_ <= 0
c45: 1 t_1,45_ - 1 y_1,44_ - 1 y_1,45_ <= 0
c46: 1 t_1,46_ - 1 y_1,45_ - 1 y_1,46_ <= 0
c47: 1 t_1,47_ - 1 y_1,46_ - 1 y_1,47_ <= 0
c48: 1 t_1,48_ - 1 y_1,47_ - 1 y_1,48_ <= 0
c49: 1 t_1,49_ - 1 y_1,48_ - 1 y_1,49_ <= 0
c50: 1 t_1,50_ - 1 y_1,49_ - 1 y_1,50_ <= 0
c51: 1 t_1,51_ - 1 y_1,50_ - 1 y_1,51_ <= 0
c52: 1 t_1,52_ - 1 y_1,51_ - 1 y_1,52_ <= 0
c53: 1 t_1,53_ - 1 y_1,52_ - 1 y_1,53_ <= 0
c54: 1 t_1,54_ - 1 y_1,53_ - 1 y_1,54_ <= 0
c55: 1 t_1,55_ - 1 y_1,54_ <= 0
c56: 1 t_2,1_ - 1 y_2,1_ <= 0
c57: 1 t_2,2_ - 1 y_2,1_ - 1 y_2,2_ <= 0
c58: 1 t_2,3_ - 1 y_2,2_ - 1 y_2,3_ <= 0
c59: 1 t_2,4_ - 1 y_2,3_ - 1 y_2,4_ <= 0
c60: 1 t_2,5_ - 1 y_2,4_ - 1 y_2,5_ <= 0
c61: 1 t_2,6_ - 1 y_2,5_ - 1 y_2,6_ <= 0
c62: 1 t_2,7_ - 1 y_2,6_ - 1 y_2,7_ <= 0
c63: 1 t_2,8_ - 1 y_2,7_ - 1 y_2,8_ <= 0
c64: 1 t_2,9_ - 1 y_2,8_ - 1 y_2,9_ <= 0
c65: 1 t_2,10_ - 1 y_2,9_ - 1 y_2,10_ <= 0
c66: 1 t_2,11_ - 1 y_2,10_ - 1 y_2,11_ <= 0
c67: 1 t_2,12_ - 1 y_2,11_ - 1 y_2,12_ <= 0
c68: 1 t_2,13_ - 1 y_2,12_ - 1 y_2,13_ <= 0
c69: 1 t_2,14_ - 1 y_2,13_ - 1 y_2,14_ <= 0
c70: 1 t_2,15_ - 1 y_2,14_ - 1 y_2,15_ <= 0
c71: 1 t_2,16_ - 1 y_2,15_ - 1 y_2,16_ <= 0
c72: 1 t_2,17_ - 1 y_2,16_ - 1 y_2,17_ <= 0
c73: 1 t_2,18_ - 1 y_2,17_ - 1 y_2,18_ <= 0
c74: 1 t_2,19_ - 1 y_2,18_ - 1 y_2,19_ <= 0
c75: 1 t_2,20_ - 1 y_2,19_ - 1 y_2,20_ <= 0
c76: 1 t_2,21_ - 1 y_2,20_ - 1 y_2,21_ <= 0
c77: 1 t_2,22_ - 1 y_2,21_ - 1 y_2,22_ <= 0
c78: 1 t_2,23_ - 1 y_2,22_ - 1 y_2,23_ <= 0
c79: 1 t_2,24_ - 1 y_2,23_ - 1 y_2,24_ <= 0
c80: 1 t_2,25_ - 1 y_2,24_ - 1 y_2,25_ <= 0
c81: 1 t_2,26_ - 1 y_2,25_ - 1 y_2,26_ <= 0
c82: 1 t_2,27_ - 1 y_2,26_ - 1 y_2,27_ <= 0
c83: 1 t_2,28_ - 1 y_2,27_ - 1 y_2,28_ <= 0
c84: 1 t_2,29_ - 1 y_2,28_ - 1 y_2,29_ <= 0
c85: 1 t_2,30_ - 1 y_2,29_ - 1 y_2,30_ <= 0
c86: 1 t_2,31_ - 1 y_2,30_ - 1 y_2,31_ <= 0
c87: 1 t_2,32_ - 1 y_2,31_ - 1 y_2,32_ <= 0
c88: 1 t_2,33_ - 1 y_2,32_ - 1 y_2,33_ <= 0
c89: 1 t_2,34_ - 1 y_2,33_ - 1 y_2,34_ <= 0
c90: 1 t_2,35_ - 1 y_2,34_ - 1 y_2,35_ <= 0
c91: 1 t_2,36_ - 1 y_2,35_ - 1 y_2,36_ <= 0
c92: 1 t_2,37_ - 1 y_2,36_ - 1 y_2,37_ <= 0
c93: 1 t_2,38_ - 1 y_2,37_ - 1 y_2,38_ <= 0
c94: 1 t_2,39_ - 1 y_2,38_ - 1 y_2,39_ <= 0
c95: 1 t_2,40_ - 1 y_2,39_ - 1 y_2,40_ <= 0
c96: 1 t_2,41_ - 1 y_2,40_ - 1 y_2,41_ <= 0
c97: 1 t_2,42_ - 1 y_2,41_ - 1 y_2,42_ <= 0
c98: 1 t_2,43_ - 1 y_2,42_ - 1 y_2,43_ <= 0
c99: 1 t_2,44_ - 1 y_2,43_ - 1 y_2,44_ <= 0
c100: 1 t_2,45_ - 1 y_2,44_ - 1 y_2,45_ <= 0
c101: 1 t_2,46_ - 1 y_2,45_ - 1 y_2,46_ <= 0
c102: 1 t_2,47_ - 1 y_2,46_ - 1 y_2,47_ <= 0
c103: 1 t_2,48_ - 1 y_2,47_ - 1 y_2,48_ <= 0
c104: 1 t_2,49_ - 1 y_2,48_ - 1 y_2,49_ <= 0
c105: 1 t_2,50_ - 1 y_2,49_ - 1 y_2,50_ <= 0
c106: 1 t_2,51_ - 1 y_2,50_ - 1 y_2,51_ <= 0
c107: 1 t_2,52_ - 1 y_2,51_ - 1 y_2,52_ <= 0
c108: 1 t_2,53_ - 1 y_2,52_ - 1 y_2,53_ <= 0
c109: 1 t_2,54_ - 1 y_2,53_ - 1 y_2,54_ <= 0
c110: 1 t_2,55_ - 1 y_2,54_ <= 0
c111: 1 t_3,1_ - 1 y_3,1_ <= 0
c112: 1 t_3,2_ - 1 y_3,1_ - 1 y_3,2_ <= 0
c113: 1 t_3,3_ - 1 y_3,2_ - 1 y_3,3_ <= 0
c114: 1 t_3,4_ - 1 y_3,3_ - 1 y_3,4_ <= 0
c115: 1 t_3,5_ - 1 y_3,4_ - 1 y_3,5_ <= 0
c116: 1 t_3,6_ - 1 y_3,5_ - 1 y_3,6_ <= 0
c117: 1 t_3,7_ - 1 y_3,6_ - 1 y_3,7_ <= 0
c118: 1 t_3,8_ - 1 y_3,7_ - 1 y_3,8_ <= 0
c119: 1 t_3,9_ - 1 y_3,8_ - 1 y_3,9_ <= 0
c120: 1 t_3,10_ - 1 y_3,9_ - 1 y_3,10_ <= 0
c121: 1 t_3,11_ - 1 y_3,10_ - 1 y_3,11_ <= 0
c122: 1 t_3,12_ - 1 y_3,11_ - 1 y_3,12_ <= 0
c123: 1 t_3,13_ - 1 y_3,12_ - 1 y_3,13_ <= 0
c124: 1 t_3,14_ - 1 y_3,13_ - 1 y_3,14_ <= 0
c125: 1 t_3,15_ - 1 y_3,14_ - 1 y_3,15_ <= 0
c126: 1 t_3,16_ - 1 y_3,15_ - 1 y_3,16_ <= 0
c127: 1 t_3,17_ - 1 y_3,16_ - 1 y_3,17_ <= 0
c128: 1 t_3,18_ - 1 y_3,17_ - 1 y_3,18_ <= 0
c129: 1 t_3,19_ - 1 y_3,18_ - 1 y_3,19_ <= 0
c130: 1 t_3,20_ - 1 y_3,19_ - 1 y_3,20_ <= 0
c131: 1 t_3,21_ - 1 y_3,20_ - 1 y_3,21_ <= 0
c132: 1 t_3,22_ - 1 y_3,21_ - 1 y_3,22_ <= 0
c133: 1 t_3,23_ - 1 y_3,22_ - 1 y_3,23_ <= 0
c134: 1 t_3,24_ - 1 y_3,23_ - 1 y_3,24_ <= 0
c135: 1 t_3,25_ - 1 y_3,24_ - 1 y_3,25_ <= 0
c136: 1 t_3,26_ - 1 y_3,25_ - 1 y_3,26_ <= 0
c137: 1 t_3,27_ - 1 y_3,26_ - 1 y_3,27_ <= 0
c138: 1 t_3,28_ - 1 y_3,27_ - 1 y_3,28_ <= 0
c139: 1 t_3,29_ - 1 y_3,28_ - 1 y_3,29_ <= 0
c140: 1 t_3,30_ - 1 y_3,29_ - 1 y_3,30_ <= 0
c141: 1 t_3,31_ - 1 y_3,30_ - 1 y_3,31_ <= 0
c142: 1 t_3,32_ - 1 y_3,31_ - 1 y_3,32_ <= 0
c143: 1 t_3,33_ - 1 y_3,32_ - 1 y_3,33_ <= 0
c144: 1 t_3,34_ - 1 y_3,33_ - 1 y_3,34_ <= 0
c145: 1 t_3,35_ - 1 y_3,34_ - 1 y_3,35_ <= 0
c146: 1 t_3,36_ - 1 y_3,35_ - 1 y_3,36_ <= 0
c147: 1 t_3,37_ - 1 y_3,36_ - 1 y_3,37_ <= 0
c148: 1 t_3,38_ - 1 y_3,37_ - 1 y_3,38_ <= 0
c149: 1 t_3,39_ - 1 y_3,38_ - 1 y_3,39_ <= 0
c150: 1 t_3,40_ - 1 y_3,39_ - 1 y_3,40_ <= 0
c151: 1 t_3,41_ - 1 y_3,40_ - 1 y_3,41_ <= 0
c152: 1 t_3,42_ - 1 y_3,41_ - 1 y_3,42_ <= 0
c153: 1 t_3,43_ - 1 y_3,42_ - 1 y_3,43_ <= 0
c154: 1 t_3,44_ - 1 y_3,43_ - 1 y_3,44_ <= 0
c155: 1 t_3,45_ - 1 y_3,44_ - 1 y_3,45_ <= 0
c156: 1 t_3,46_ - 1 y_3,45_ - 1 y_3,46_ <= 0
c157: 1 t_3,47_ - 1 y_3,46_ - 1 y_3,47_ <= 0
c158: 1 t_3,48_ - 1 y_3,47_ - 1 y_3,48_ <= 0
c159: 1 t_3,49_ - 1 y_3,48_ - 1 y_3,49_ <= 0
c160: 1 t_3,50_ - 1 y_3,49_ - 1 y_3,50_ <= 0
c161: 1 t_3,51_ - 1 y_3,50_ - 1 y_3,51_ <= 0
c162: 1 t_3,52_ - 1 y_3,51_ - 1 y_3,52_ <= 0
c163: 1 t_3,53_ - 1 y_3,52_ - 1 y_3,53_ <= 0
c164: 1 t_3,54_ - 1 y_3,53_ - 1 y_3,54_ <= 0
c165: 1 t_3,55_ - 1 y_3,54_ <= 0
c166: 4 t_1,1_ + 4 t_2,1_ + 4 t_3,1_ + 3.7091906721536354 t_1,2_ + 3.7091906721536354 t_2,2_ + 3.7091906721536354 t_3,2_ + 3.4293552812071337 t_1,3_ + 3.4293552812071337 t_2,3_ + 3.4293552812071337 t_3,3_ + 3.1604938271604937 t_1,4_ + 3.1604938271604937 t_2,4_ + 3.1604938271604937 t_3,4_ + 2.9026063100137174 t_1,5_ + 2.9026063100137174 t_2,5_ + 2.9026063100137174 t_3,5_ + 2.6556927297668045 t_1,6_ + 2.6556927297668045 t_2,6_ + 2.6556927297668045 t_3,6_ + 2.4197530864197523 t_1,7_ + 2.4197530864197523 t_2,7_ + 2.4197530864197523 t_3,7_ + 2.194787379972565 t_1,8_ + 2.194787379972565 t_2,8_ + 2.194787379972565 t_3,8_ + 1.9807956104252402 t_1,9_ + 1.9807956104252402 t_2,9_ + 1.9807956104252402 t_3,9_ + 1.7777777777777781 t_1,10_ + 1.7777777777777781 t_2,10_ + 1.7777777777777781 t_3,10_ + 1.585733882030179 t_1,11_ + 1.585733882030179 t_2,11_ + 1.585733882030179 t_3,11_ + 1.4046639231824416 t_1,12_ + 1.4046639231824416 t_2,12_ + 1.4046639231824416 t_3,12_ + 1.234567901234568 t_1,13_ + 1.234567901234568 t_2,13_ + 1.234567901234568 t_3,13_ + 1.0754458161865572 t_1,14_ + 1.0754458161865572 t_2,14_ + 1.0754458161865572 t_3,14_ + 0.9272976680384086 t_1,15_ + 0.9272976680384086 t_2,15_ + 0.9272976680384086 t_3,15_ + 0.7901234567901234 t_1,16_ + 0.7901234567901234 t_2,16_ + 0.7901234567901234 t_3,16_ + 0.6639231824417011 t_1,17_ + 0.6639231824417011 t_2,17_ + 0.6639231824417011 t_3,17_ + 0.5486968449931411 t_1,18_ + 0.5486968449931411 t_2,18_ + 0.5486968449931411 t_3,18_ + 0.4444444444444447 t_1,19_ + 0.4444444444444447 t_2,19_ + 0.4444444444444447 t_3,19_ + 0.3511659807956104 t_1,20_ + 0.3511659807956104 t_2,20_ + 0.3511659807956104 t_3,20_ + 0.2688614540466393 t_1,21_ + 0.2688614540466393 t_2,21_ + 0.2688614540466393 t_3,21_ + 0.19753086419753094 t_1,22_ + 0.19753086419753094 t_2,22_ + 0.19753086419753094 t_3,22_ + 0.1371742112482853 t_1,23_ + 0.1371742112482853 t_2,23_ + 0.1371742112482853 t_3,23_ + 0.0877914951989026 t_1,24_ + 0.0877914951989026 t_2,24_ + 0.0877914951989026 t_3,24_ + 0.04938271604938276 t_1,25_ + 0.04938271604938276 t_2,25_ + 0.04938271604938276 t_3,25_ + 0.021947873799725615 t_1,26_ + 0.021947873799725615 t_2,26_ + 0.021947873799725615 t_3,26_ + 0.0054869684499314455 t_1,27_ + 0.0054869684499314455 t_2,27_ + 0.0054869684499314455 t_3,27_ + 0.005486968449931396 t_1,29_ + 0.005486968449931396 t_2,29_ + 0.005486968449931396 t_3,29_ + 0.021947873799725716 t_1,30_ + 0.021947873799725716 t_2,30_ + 0.021947873799725716 t_3,30_ + 0.04938271604938276 t_1,31_ + 0.04938271604938276 t_2,31_ + 0.04938271604938276 t_3,31_ + 0.0877914951989026 t_1,32_ + 0.0877914951989026 t_2,32_ + 0.0877914951989026 t_3,32_ + 0.13717421124828522 t_1,33_ + 0.13717421124828522 t_2,33_ + 0.13717421124828522 t_3,33_ + 0.19753086419753105 t_1,34_ + 0.19753086419753105 t_2,34_ + 0.19753086419753105 t_3,34_ + 0.2688614540466393 t_1,35_ + 0.2688614540466393 t_2,35_ + 0.2688614540466393 t_3,35_ + 0.3511659807956104 t_1,36_ + 0.3511659807956104 t_2,36_ + 0.3511659807956104 t_3,36_ + 0.44444444444444425 t_1,37_ + 0.44444444444444425 t_2,37_ + 0.44444444444444425 t_3,37_ + 0.5486968449931415 t_1,38_ + 0.5486968449931415 t_2,38_ + 0.5486968449931415 t_3,38_ + 0.6639231824417011 t_1,39_ + 0.6639231824417011 t_2,39_ + 0.6639231824417011 t_3,39_ + 0.7901234567901234 t_1,40_ + 0.7901234567901234 t_2,40_ + 0.7901234567901234 t_3,40_ + 0.9272976680384084 t_1,41_ + 0.9272976680384084 t_2,41_ + 0.9272976680384084 t_3,41_ + 1.0754458161865572 t_1,42_ + 1.0754458161865572 t_2,42_ + 1.0754458161865572 t_3,42_ + 1.234567901234568 t_1,43_ + 1.234567901234568 t_2,43_ + 1.234567901234568 t_3,43_ + 1.4046639231824416 t_1,44_ + 1.4046639231824416 t_2,44_ + 1.4046639231824416 t_3,44_ + 1.5857338820301778 t_1,45_ + 1.5857338820301778 t_2,45_ + 1.5857338820301778 t_3,45_ + 1.7777777777777781 t_1,46_ + 1.7777777777777781 t_2,46_ + 1.7777777777777781 t_3,46_ + 1.9807956104252402 t_1,47_ + 1.9807956104252402 t_2,47_ + 1.9807956104252402 t_3,47_ + 2.194787379972565 t_1,48_ + 2.194787379972565 t_2,48_ + 2.194787379972565 t_3,48_ + 2.4197530864197523 t_1,49_ + 2.4197530864197523 t_2,49_ + 2.4197530864197523 t_3,49_ + 2.6556927297668045 t_1,50_ + 2.6556927297668045 t_2,50_ + 2.6556927297668045 t_3,50_ + 2.9026063100137174 t_1,51_ + 2.9026063100137174 t_2,51_ + 2.9026063100137174 t_3,51_ + 3.1604938271604937 t_1,52_ + 3.1604938271604937 t_2,52_ + 3.1604938271604937 t_3,52_ + 3.4293552812071324 t_1,53_ + 3.4293552812071324 t_2,53_ + 3.4293552812071324 t_3,53_ + 3.7091906721536354 t_1,54_ + 3.7091906721536354 t_2,54_ + 3.7091906721536354 t_3,54_ + 4 t_1,55_ + 4 t_2,55_ + 4 t_3,55_ <= 1
c1: 1 y_1,1_ + 1 y_1,2_ + 1 y_1,3_ + 1 y_1,4_ + 1 y_1,5_ + 1 y_1,6_ + 1 y_1,7_ + 1 y_1,8_ + 1 y_1,9_ + 1 y_1,10_ + 1 y_1,11_ + 1 y_1,12_ + 1 y_1,13_ + 1 y_1,14_ + 1 y_1,15_ + 1 y_1,16_ + 1 y_1,17_ + 1 y_1,18_ + 1 y_1,19_ + 1 y_1,20_ + 1 y_1,21_ + 1 y_1,22_ + 1 y_1,23_ + 1 y_1,24_ + 1 y_1,25_ + 1 y_1,26_ + 1 y_1,27_ + 1 y_1,28_ + 1 y_1,29_ + 1 y_1,30_ + 1 y_1,31_ + 1 y_1,32_ + 1 y_1,33_ + 1 y_1,34_ + 1 y_1,35_ + 1 y_1,36_ + 1 y_1,37_ + 1 y_1,38_ + 1 y_1,39_ + 1 y_1,40_ + 1 y_1,41_ + 1 y_1,42_ + 1 y_1,43_ + 1 y_1,44_ + 1 y_1,45_ + 1 y_1,46_ + 1 y_1,47_ + 1 y_1,48_ + 1 y_1,49_ + 1 y_1,50_ + 1 y_1,51_ + 1 y_1,52_ + 1 y_1,53_ + 1 y_1,54_ = 1
c2: 1 t_1,1_ + 1 t_1,2_ + 1 t_1,3_ + 1 t_1,4_ + 1 t_1,5_ + 1 t_1,6_ + 1 t_1,7_ + 1 t_1,8_ + 1 t_1,9_ + 1 t_1,10_ + 1 t_1,11_ + 1 t_1,12_ + 1 t_1,13_ + 1 t_1,14_ + 1 t_1,15_ + 1 t_1,16_ + 1 t_1,17_ + 1 t_1,18_ + 1 t_1,19_ + 1 t_1,20_ + 1 t_1,21_ + 1 t_1,22_ + 1 t_1,23_ + 1 t_1,24_ + 1 t_1,25_ + 1 t_1,26_ + 1 t_1,27_ + 1 t_1,28_ + 1 t_1,29_ + 1 t_1,30_ + 1 t_1,31_ + 1 t_1,32_ + 1 t_1,33_ + 1 t_1,34_ + 1 t_1,35_ + 1 t_1,36_ + 1 t_1,37_ + 1 t_1,38_ + 1 t_1,39_ + 1 t_1,40_ + 1 t_1,41_ + 1 t_1,42_ + 1 t_1,43_ + 1 t_1,44_ + 1 t_1,45_ + 1 t_1,46_ + 1 t_1,47_ + 1 t_1,48_ + 1 t_1,49_ + 1 t_1,50_ + 1 t_1,51_ + 1 t_1,52_ + 1 t_1,53_ + 1 t_1,54_ + 1 t_1,55_ = 1
c3: -2 t_1,1_ - 1.925925925925926 t_1,2_ - 1.851851851851852 t_1,3_ - 1.7777777777777777 t_1,4_ - 1.7037037037037037 t_1,5_ - 1.6296296296296298 t_1,6_ - 1.5555555555555554 t_1,7_ - 1.4814814814814814 t_1,8_ - 1.4074074074074074 t_1,9_ - 1.3333333333333335 t_1,10_ - 1.2592592592592595 t_1,11_ - 1.1851851851851851 t_1,12_ - 1.1111111111111112 t_1,13_ - 1.0370370370370372 t_1,14_ - 0.9629629629629629 t_1,15_ - 0.8888888888888888 t_1,16_ - 0.8148148148148149 t_1,17_ - 0.7407407407407406 t_1,18_ - 0.6666666666666669 t_1,19_ - 0.5925925925925926 t_1,20_ - 0.5185185185185186 t_1,21_ - 0.44444444444444453 t_1,22_ - 0.37037037037037035 t_1,23_ - 0.2962962962962963 t_1,24_ - 0.22222222222222232 t_1,25_ - 0.14814814814814803 t_1,26_ - 0.07407407407407429 t_1,27_ + 0.07407407407407396 t_1,29_ + 0.14814814814814836 t_1,30_ + 0.22222222222222232 t_1,31_ + 0.2962962962962963 t_1,32_ + 0.37037037037037024 t_1,33_ + 0.44444444444444464 t_1,34_ + 0.5185185185185186 t_1,35_ + 0.5925925925925926 t_1,36_ + 0.6666666666666665 t_1,37_ + 0.7407407407407409 t_1,38_ + 0.8148148148148149 t_1,39_ + 0.8888888888888888 t_1,40_ + 0.9629629629629628 t_1,41_ + 1.0370370370370372 t_1,42_ + 1.1111111111111112 t_1,43_ + 1.1851851851851851 t_1,44_ + 1.259259259259259 t_1,45_ + 1.3333333333333335 t_1,46_ + 1.4074074074074074 t_1,47_ + 1.4814814814814814 t_1,48_ + 1.5555555555555554 t_1,49_ + 1.6296296296296298 t_1,50_ + 1.7037037037037037 t_1,51_ + 1.7777777777777777 t_1,52_ + 1.8518518518518516 t_1,53_ + 1.925925925925926 t_1,54_ + 2 t_1,55_ - 1 x_1_ = 0
c4: 1 y_2,1_ + 1 y_2,2_ + 1 y_2,3_ + 1 y_2,4_ + 1 y_2,5_ + 1 y_2,6_ + 1 y_2,7_ + 1 y_2,8_ + 1 y_2,9_ + 1 y_2,10_ + 1 y_2,11_ + 1 y_2,12_ + 1 y_2,13_ + 1 y_2,14_ + 1 y_2,15_ + 1 y_2,16_ + 1 y_2,17_ + 1 y_2,18_ + 1 y_2,19_ + 1 y_2,20_ + 1 y_2,21_ + 1 y_2,22_ + 1 y_2,23_ + 1 y_2,24_ + 1 y_2,25_ + 1 y_2,26_ + 1 y_2,27_ + 1 y_2,28_ + 1 y_2,29_ + 1 y_2,30_ + 1 y_2,31_ + 1 y_2,32_ + 1 y_2,33_ + 1 y_2,34_ + 1 y_2,35_ + 1 y_2,36_ + 1 y_2,37_ + 1 y_2,38_ + 1 y_2,39_ + 1 y_2,40_ + 1 y_2,41_ + 1 y_2,42_ + 1 y_2,43_ + 1 y_2,44_ + 1 y_2,45_ + 1 y_2,46_ + 1 y_2,47_ + 1 y_2,48_ + 1 y_2,49_ + 1 y_2,50_ + 1 y_2,51_ + 1 y_2,52_ + 1 y_2,53_ + 1 y_2,54_ = 1
c5: 1 t_2,1_ + 1 t_2,2_ + 1 t_2,3_ + 1 t_2,4_ + 1 t_2,5_ + 1 t_2,6_ + 1 t_2,7_ + 1 t_2,8_ + 1 t_2,9_ + 1 t_2,10_ + 1 t_2,11_ + 1 t_2,12_ + 1 t_2,13_ + 1 t_2,14_ + 1 t_2,15_ + 1 t_2,16_ + 1 t_2,17_ + 1 t_2,18_ + 1 t_2,19_ + 1 t_2,20_ + 1 t_2,21_ + 1 t_2,22_ + 1 t_2,23_ + 1 t_2,24_ + 1 t_2,25_ + 1 t_2,26_ + 1 t_2,27_ + 1 t_2,28_ + 1 t_2,29_ + 1 t_2,30_ + 1 t_2,31_ + 1 t_2,32_ + 1 t_2,33_ + 1 t_2,34_ + 1 t_2,35_ + 1 t_2,36_ + 1 t_2,37_ + 1 t_2,38_ + 1 t_2,39_ + 1 t_2,40_ + 1 t_2,41_ + 1 t_2,42_ + 1 t_2,43_ + 1 t_2,44_ + 1 t_2,45_ + 1 t_2,46_ + 1 t_2,47_ + 1 t_2,48_ + 1 t_2,49_ + 1 t_2,50_ + 1 t_2,51_ + 1 t_2,52_ + 1 t_2,53_ + 1 t_2,54_ + 1 t_2,55_ = 1
c6: -2 t_2,1_ - 1.925925925925926 t_2,2_ - 1.851851851851852 t_2,3_ - 1.7777777777777777 t_2,4_ - 1.7037037037037037 t_2,5_ - 1.6296296296296298 t_2,6_ - 1.5555555555555554 t_2,7_ - 1.4814814814814814 t_2,8_ - 1.4074074074074074 t_2,9_ - 1.3333333333333335 t_2,10_ - 1.2592592592592595 t_2,11_ - 1.1851851851851851 t_2,12_ - 1.1111111111111112 t_2,13_ - 1.0370370370370372 t_2,14_ - 0.9629629629629629 t_2,15_ - 0.8888888888888888 t_2,16_ - 0.8148148148148149 t_2,17_ - 0.7407407407407406 t_2,18_ - 0.6666666666666669 t_2,19_ - 0.5925925925925926 t_2,20_ - 0.5185185185185186 t_2,21_ - 0.44444444444444453 t_2,22_ - 0.37037037037037035 t_2,23_ - 0.2962962962962963 t_2,24_ - 0.22222222222222232 t_2,25_ - 0.14814814814814803 t_2,26_ - 0.07407407407407429 t_2,27_ + 0.07407407407407396 t_2,29_ + 0.14814814814814836 t_2,30_ + 0.22222222222222232 t_2,31_ + 0.2962962962962963 t_2,32_ + 0.37037037037037024 t_2,33_ + 0.44444444444444464 t_2,34_ + 0.5185185185185186 t_2,35_ + 0.5925925925925926 t_2,36_ + 0.6666666666666665 t_2,37_ + 0.7407407407407409 t_2,38_ + 0.8148148148148149 t_2,39_ + 0.8888888888888888 t_2,40_ + 0.9629629629629628 t_2,41_ + 1.0370370370370372 t_2,42_ + 1.1111111111111112 t_2,43_ + 1.1851851851851851 t_2,44_ + 1.259259259259259 t_2,45_ + 1.3333333333333335 t_2,46_ + 1.4074074074074074 t_2,47_ + 1.4814814814814814 t_2,48_ + 1.5555555555555554 t_2,49_ + 1.6296296296296298 t_2,50_ + 1.7037037037037037 t_2,51_ + 1.7777777777777777 t_2,52_ + 1.8518518518518516 t_2,53_ + 1.925925925925926 t_2,54_ + 2 t_2,55_ - 1 x_2_ = 0
c7: 1 y_3,1_ + 1 y_3,2_ + 1 y_3,3_ + 1 y_3,4_ + 1 y_3,5_ + 1 y_3,6_ + 1 y_3,7_ + 1 y_3,8_ + 1 y_3,9_ + 1 y_3,10_ + 1 y_3,11_ + 1 y_3,12_ + 1 y_3,13_ + 1 y_3,14_ + 1 y_3,15_ + 1 y_3,16_ + 1 y_3,17_ + 1 y_3,18_ + 1 y_3,19_ + 1 y_3,20_ + 1 y_3,21_ + 1 y_3,22_ + 1 y_3,23_ + 1 y_3,24_ + 1 y_3,25_ + 1 y_3,26_ + 1 y_3,27_ + 1 y_3,28_ + 1 y_3,29_ + 1 y_3,30_ + 1 y_3,31_ + 1 y_3,32_ + 1 y_3,33_ + 1 y_3,34_ + 1 y_3,35_ + 1 y_3,36_ + 1 y_3,37_ + 1 y_3,38_ + 1 y_3,39_ + 1 y_3,40_ + 1 y_3,41_ + 1 y_3,42_ + 1 y_3,43_ + 1 y_3,44_ + 1 y_3,45_ + 1 y_3,46_ + 1 y_3,47_ + 1 y_3,48_ + 1 y_3,49_ + 1 y_3,50_ + 1 y_3,51_ + 1 y_3,52_ + 1 y_3,53_ + 1 y_3,54_ = 1
c8: 1 t_3,1_ + 1 t_3,2_ + 1 t_3,3_ + 1 t_3,4_ + 1 t_3,5_ + 1 t_3,6_ + 1 t_3,7_ + 1 t_3,8_ + 1 t_3,9_ + 1 t_3,10_ + 1 t_3,11_ + 1 t_3,12_ + 1 t_3,13_ + 1 t_3,14_ + 1 t_3,15_ + 1 t_3,16_ + 1 t_3,17_ + 1 t_3,18_ + 1 t_3,19_ + 1 t_3,20_ + 1 t_3,21_ + 1 t_3,22_ + 1 t_3,23_ + 1 t_3,24_ + 1 t_3,25_ + 1 t_3,26_ + 1 t_3,27_ + 1 t_3,28_ + 1 t_3,29_ + 1 t_3,30_ + 1 t_3,31_ + 1 t_3,32_ + 1 t_3,33_ + 1 t_3,34_ + 1 t_3,35_ + 1 t_3,36_ + 1 t_3,37_ + 1 t_3,38_ + 1 t_3,39_ + 1 t_3,40_ + 1 t_3,41_ + 1 t_3,42_ + 1 t_3,43_ + 1 t_3,44_ + 1 t_3,45_ + 1 t_3,46_ + 1 t_3,47_ + 1 t_3,48_ + 1 t_3,49_ + 1 t_3,50_ + 1 t_3,51_ + 1 t_3,52_ + 1 t_3,53_ + 1 t_3,54_ + 1 t_3,55_ = 1
c9: -2 t_3,1_ - 1.925925925925926 t_3,2_ - 1.851851851851852 t_3,3_ - 1.7777777777777777 t_3,4_ - 1.7037037037037037 t_3,5_ - 1.6296296296296298 t_3,6_ - 1.5555555555555554 t_3,7_ - 1.4814814814814814 t_3,8_ - 1.4074074074074074 t_3,9_ - 1.3333333333333335 t_3,10_ - 1.2592592592592595 t_3,11_ - 1.1851851851851851 t_3,12_ - 1.1111111111111112 t_3,13_ - 1.0370370370370372 t_3,14_ - 0.9629629629629629 t_3,15_ - 0.8888888888888888 t_3,16_ - 0.8148148148148149 t_3,17_ - 0.7407407407407406 t_3,18_ - 0.6666666666666669 t_3,19_ - 0.5925925925925926 t_3,20_ - 0.5185185185185186 t_3,21_ - 0.44444444444444453 t_3,22_ - 0.37037037037037035 t_3,23_ - 0.2962962962962963 t_3,24_ - 0.22222222222222232 t_3,25_ - 0.14814814814814803 t_3,26_ - 0.07407407407407429 t_3,27_ + 0.07407407407407396 t_3,29_ + 0.14814814814814836 t_3,30_ + 0.22222222222222232 t_3,31_ + 0.2962962962962963 t_3,32_ + 0.37037037037037024 t_3,33_ + 0.44444444444444464 t_3,34_ + 0.5185185185185186 t_3,35_ + 0.5925925925925926 t_3,36_ + 0.6666666666666665 t_3,37_ + 0.7407407407407409 t_3,38_ + 0.8148148148148149 t_3,39_ + 0.8888888888888888 t_3,40_ + 0.9629629629629628 t_3,41_ + 1.0370370370370372 t_3,42_ + 1.1111111111111112 t_3,43_ + 1.1851851851851851 t_3,44_ + 1.259259259259259 t_3,45_ + 1.3333333333333335 t_3,46_ + 1.4074074074074074 t_3,47_ + 1.4814814814814814 t_3,48_ + 1.5555555555555554 t_3,49_ + 1.6296296296296298 t_3,50_ + 1.7037037037037037 t_3,51_ + 1.7777777777777777 t_3,52_ + 1.8518518518518516 t_3,53_ + 1.925925925925926 t_3,54_ + 2 t_3,55_ - 1 x_3_ = 0
Bounds
x_1_ <= 2
x_2_ <= 2
x_3_ <= 2
t_1,1_ >= 0
t_2,1_ >= 0
t_3,1_ >= 0
t_1,2_ >= 0
t_2,2_ >= 0
t_3,2_ >= 0
t_1,3_ >= 0
t_2,3_ >= 0
t_3,3_ >= 0
t_1,4_ >= 0
t_2,4_ >= 0
t_3,4_ >= 0
t_1,5_ >= 0
t_2,5_ >= 0
t_3,5_ >= 0
t_1,6_ >= 0
t_2,6_ >= 0
t_3,6_ >= 0
t_1,7_ >= 0
t_2,7_ >= 0
t_3,7_ >= 0
t_1,8_ >= 0
t_2,8_ >= 0
t_3,8_ >= 0
t_1,9_ >= 0
t_2,9_ >= 0
t_3,9_ >= 0
t_1,10_ >= 0
t_2,10_ >= 0
t_3,10_ >= 0
t_1,11_ >= 0
t_2,11_ >= 0
t_3,11_ >= 0
t_1,12_ >= 0
t_2,12_ >= 0
t_3,12_ >= 0
t_1,13_ >= 0
t_2,13_ >= 0
t_3,13_ >= 0
t_1,14_ >= 0
t_2,14_ >= 0
t_3,14_ >= 0
t_1,15_ >= 0
t_2,15_ >= 0
t_3,15_ >= 0
t_1,16_ >= 0
t_2,16_ >= 0
t_3,16_ >= 0
t_1,17_ >= 0
t_2,17_ >= 0
t_3,17_ >= 0
t_1,18_ >= 0
t_2,18_ >= 0
t_3,18_ >= 0
t_1,19_ >= 0
t_2,19_ >= 0
t_3,19_ >= 0
t_1,20_ >= 0
t_2,20_ >= 0
t_3,20_ >= 0
t_1,21_ >= 0
t_2,21_ >= 0
t_3,21_ >= 0
t_1,22_ >= 0
t_2,22_ >= 0
t_3,22_ >= 0
t_1,23_ >= 0
t_2,23_ >= 0
t_3,23_ >= 0
t_1,24_ >= 0
t_2,24_ >= 0
t_3,24_ >= 0
t_1,25_ >= 0
t_2,25_ >= 0
t_3,25_ >= 0
t_1,26_ >= 0
t_2,26_ >= 0
t_3,26_ >= 0
t_1,27_ >= 0
t_2,27_ >= 0
t_3,27_ >= 0
t_1,28_ >= 0
t_2,28_ >= 0
t_3,28_ >= 0
t_1,29_ >= 0
t_2,29_ >= 0
t_3,29_ >= 0
t_1,30_ >= 0
t_2,30_ >= 0
t_3,30_ >= 0
t_1,31_ >= 0
t_2,31_ >= 0
t_3,31_ >= 0
t_1,32_ >= 0
t_2,32_ >= 0
t_3,32_ >= 0
t_1,33_ >= 0
t_2,33_ >= 0
t_3,33_ >= 0
t_1,34_ >= 0
t_2,34_ >= 0
t_3,34_ >= 0
t_1,35_ >= 0
t_2,35_ >= 0
t_3,35_ >= 0
t_1,36_ >= 0
t_2,36_ >= 0
t_3,36_ >= 0
t_1,37_ >= 0
t_2,37_ >= 0
t_3,37_ >= 0
t_1,38_ >= 0
t_2,38_ >= 0
t_3,38_ >= 0
t_1,39_ >= 0
t_2,39_ >= 0
t_3,39_ >= 0
t_1,40_ >= 0
t_2,40_ >= 0
t_3,40_ >= 0
t_1,41_ >= 0
t_2,41_ >= 0
t_3,41_ >= 0
t_1,42_ >= 0
t_2,42_ >= 0
t_3,42_ >= 0
t_1,43_ >= 0
t_2,43_ >= 0
t_3,43_ >= 0
t_1,44_ >= 0
t_2,44_ >= 0
t_3,44_ >= 0
t_1,45_ >= 0
t_2,45_ >= 0
t_3,45_ >= 0
t_1,46_ >= 0
t_2,46_ >= 0
t_3,46_ >= 0
t_1,47_ >= 0
t_2,47_ >= 0
t_3,47_ >= 0
t_1,48_ >= 0
t_2,48_ >= 0
t_3,48_ >= 0
t_1,49_ >= 0
t_2,49_ >= 0
t_3,49_ >= 0
t_1,50_ >= 0
t_2,50_ >= 0
t_3,50_ >= 0
t_1,51_ >= 0
t_2,51_ >= 0
t_3,51_ >= 0
t_1,52_ >= 0
t_2,52_ >= 0
t_3,52_ >= 0
t_1,53_ >= 0
t_2,53_ >= 0
t_3,53_ >= 0
t_1,54_ >= 0
t_2,54_ >= 0
t_3,54_ >= 0
t_1,55_ >= 0
t_2,55_ >= 0
t_3,55_ >= 0
x_1_ >= -2
x_2_ >= -2
x_3_ >= -2
Binary
y_1,1_
y_2,1_
y_3,1_
y_1,2_
y_2,2_
y_3,2_
y_1,3_
y_2,3_
y_3,3_
y_1,4_
y_2,4_
y_3,4_
y_1,5_
y_2,5_
y_3,5_
y_1,6_
y_2,6_
y_3,6_
y_1,7_
y_2,7_
y_3,7_
y_1,8_
y_2,8_
y_3,8_
y_1,9_
y_2,9_
y_3,9_
y_1,10_
y_2,10_
y_3,10_
y_1,11_
y_2,11_
y_3,11_
y_1,12_
y_2,12_
y_3,12_
y_1,13_
y_2,13_
y_3,13_
y_1,14_
y_2,14_
y_3,14_
y_1,15_
y_2,15_
y_3,15_
y_1,16_
y_2,16_
y_3,16_
y_1,17_
y_2,17_
y_3,17_
y_1,18_
y_2,18_
y_3,18_
y_1,19_
y_2,19_
y_3,19_
y_1,20_
y_2,20_
y_3,20_
y_1,21_
y_2,21_
y_3,21_
y_1,22_
y_2,22_
y_3,22_
y_1,23_
y_2,23_
y_3,23_
y_1,24_
y_2,24_
y_3,24_
y_1,25_
y_2,25_
y_3,25_
y_1,26_
y_2,26_
y_3,26_
y_1,27_
y_2,27_
y_3,27_
y_1,28_
y_2,28_
y_3,28_
y_1,29_
y_2,29_
y_3,29_
y_1,30_
y_2,30_
y_3,30_
y_1,31_
y_2,31_
y_3,31_
y_1,32_
y_2,32_
y_3,32_
y_1,33_
y_2,33_
y_3,33_
y_1,34_
y_2,34_
y_3,34_
y_1,35_
y_2,35_
y_3,35_
y_1,36_
y_2,36_
y_3,36_
y_1,37_
y_2,37_
y_3,37_
y_1,38_
y_2,38_
y_3,38_
y_1,39_
y_2,39_
y_3,39_
y_1,40_
y_2,40_
y_3,40_
y_1,41_
y_2,41_
y_3,41_
y_1,42_
y_2,42_
y_3,42_
y_1,43_
y_2,43_
y_3,43_
y_1,44_
y_2,44_
y_3,44_
y_1,45_
y_2,45_
y_3,45_
y_1,46_
y_2,46_
y_3,46_
y_1,47_
y_2,47_
y_3,47_
y_1,48_
y_2,48_
y_3,48_
y_1,49_
y_2,49_
y_3,49_
y_1,50_
y_2,50_
y_3,50_
y_1,51_
y_2,51_
y_3,51_
y_1,52_
y_2,52_
y_3,52_
y_1,53_
y_2,53_
y_3,53_
y_1,54_
y_2,54_
y_3,54_
End
