res_glpk/log/3_54.log
GLPSOL--GLPK LP/MIP Solver 5.0
Parameter(s) specified in the command line:
 --lp ../modeles/3_54.lp --log 3_54.log
Reading problem data from '../modeles/3_54.lp'...
175 rows, 330 columns, 1143 non-zeros
162 integer variables, all of which are binary
514 lines were read
GLPK Integer Optimizer 5.0
175 rows, 330 columns, 1143 non-zeros
162 integer variables, all of which are binary
Preprocessing...
162 constraint coefficient(s) were reduced
175 rows, 327 columns, 1140 non-zeros
162 integer variables, all of which are binary
Scaling...
 A: min|aij| =  5.487e-03  max|aij| =  4.000e+00  ratio =  7.290e+02
GM: min|aij| =  1.925e-01  max|aij| =  5.196e+00  ratio =  2.700e+01
EQ: min|aij| =  3.704e-02  max|aij| =  1.000e+00  ratio =  2.700e+01
2N: min|aij| =  3.125e-02  max|aij| =  1.653e+00  ratio =  5.290e+01
Constructing initial basis...
Size of triangular part is 175
Solving LP relaxation...
GLPK Simplex Optimizer 5.0
175 rows, 327 columns, 1140 non-zeros
      0: obj =   6.000000000e+00 inf =   1.450e+01 (7)
     26: obj =   1.744666208e-01 inf =   0.000e+00 (0)
*    84: obj =  -1.729629630e+00 inf =   4.735e-17 (0)
OPTIMAL LP SOLUTION FOUND
Integer optimization begins...
Long-step dual simplex will be used
+    84: mip =     not found yet >=              -inf        (1; 0)
+   115: >>>>>  -1.729629630e+00 >=  -1.729629630e+00 < 0.1% (31; 0)
+   115: mip =  -1.729629630e+00 >=     tree is empty   0.0% (0; 61)
INTEGER OPTIMAL SOLUTION FOUND
Time used:   0.0 secs
Memory used: 0.5 Mb (536701 bytes)
